CMD:
./solvers/bin/cadical --plain --no-reduce -t 1600 ./data/cnfs//qspiflash_dualflexpress_divfive-p120/qspiflash_dualflexpress_divfive-p120.71.cnf

c --- [ banner ] -------------------------------------------------------------
c 
c CaDiCaL SAT Solver
c Copyright (c) 2016-2024
c A. Biere, M. Fleury, N. Froleyks, K. Fazekas, F. Pollitt, T. Faller
c JKU Linz, University of Freiburg, TU Wien
c 
c Version 2.1.3 5296d3d2a9bf48c154ab2acb5e44625776d821bf
c g++ (Gentoo 12.3.1_p20230526 p2) 12.3.1 20230526 -Wall -Wextra -O3 -DNDEBUG
c Sat Aug 9 07:26:21 PDT 2025 Linux cedar2.int.cedar.computecanada.ca 5.14.0-362.24.2.el9_3.x86_64 x86_64
c 
c --- [ limit ] --------------------------------------------------------------
c 
c setting time limit to 1600 seconds real time (due to '-t 1600')
c 
c --- [ parsing input ] ------------------------------------------------------
c 
c reading DIMACS file from './data/cnfs//qspiflash_dualflexpress_divfive-p120/qspiflash_dualflexpress_divfive-p120.71.cnf'
c opening file to read './data/cnfs//qspiflash_dualflexpress_divfive-p120/qspiflash_dualflexpress_divfive-p120.71.cnf'
c found 'p cnf 213391 623067' header
c parsed 623067 clauses in 0.09 seconds process time
c 
c --- [ options ] ------------------------------------------------------------
c 
c   --compact=false                (different from default 'true')
c   --decompose=false              (different from default 'true')
c   --deduplicate=false            (different from default 'true')
c   --elim=false                   (different from default 'true')
c   --probe=false                  (different from default 'true')
c   --reduce=false                 (different from default 'true')
c   --subsume=false                (different from default 'true')
c   --ternary=false                (different from default 'true')
c   --transred=false               (different from default 'true')
c   --vivify=false                 (different from default 'true')
c 
c --- [ solving ] ------------------------------------------------------------
c 
c time measured in process time since initialization
c 
c  seconds  reductions  redundant  irredundant
c         MB    restarts       trail       variables
c          level   conflicts       glue          remaining
c 
c *  0.09 98  0 0   0    0    0  0% 0 601191 198523 93%
c {  0.16 101  0 0   0    0    0  0% 0 601191 198523 93%
c i  0.17 101 81 0   0   57   56 17% 4 601191 198513 93%
c i  0.17 101 74 0   0   65   61 16% 4 601191 198469 93%
c i  0.18 102 76 0   0  188  180 19% 3 601191 198440 93%
c i  0.18 102 80 0   0  215  202 20% 3 601191 198435 93%
c i  0.18 102 80 0   0  217  203 21% 3 601191 198428 93%
c i  0.18 102 80 0   0  218  203 21% 2 601191 198410 93%
c i  0.19 102 83 0   0  254  233 22% 2 601191 198399 93%
c i  0.19 102 85 0   1  284  261 23% 3 601191 198390 93%
c i  0.25 102 81 0  13  425  360 21% 3 601191 197848 93%
c i  0.25 102 80 0  15  431  365 21% 3 601191 197847 93%
c i  0.25 102 77 0  16  448  379 21% 3 601191 197805 93%
c i  0.28 102 75 0  27  602  521 21% 3 601191 197804 93%
c i  0.33 102 69 0  50  836  730 21% 3 601191 197803 93%
c i  0.36 103 64 0  75  968  847 20% 3 601191 197799 93%
c }  0.36 103 63 0  78 1000  876 20% 3 601191 197799 93%
c [  0.36 103  0 0  78 1000  876  0% 0 601191 197799 93%
c O  0.39 103 770 0  78 1003  879 47% 2 601191 197799 93%
c i  0.45 103 132 0  78 1389 1222 15% 4 601191 197767 93%
c 
c  seconds    reductions  redundant  irredundant
c          MB     restarts       trail       variables
c            level   conflicts       glue          remaining
c 
c i  0.46 103 121 0  78 1445 1275 16% 4 601191 197766 93%
c i  0.47 103 116 0  78 1474 1303 16% 4 601191 197743 93%
c i  0.47 103 115 0  78 1482 1310 16% 4 601191 197738 93%
c i  0.47 103 115 0  78 1484 1310 16% 4 601191 197715 93%
c i  0.50 103 89 0  78 1690 1507 16% 4 601191 197714 93%
c i  0.51 103 86 0  78 1730 1544 17% 4 601191 197708 93%
c i  0.55 103 70 0  78 2008 1809 16% 3 601191 197681 93%
c i  0.60 103 57 0  79 2338 2110 15% 4 601191 197664 93%
c i  0.60 103 56 0  79 2352 2123 15% 4 601191 197626 93%
c i  0.61 103 55 0  79 2381 2147 15% 4 601191 197625 93%
c i  0.61 103 54 0  79 2402 2166 15% 4 601191 197593 93%
c i  0.61 103 54 0  79 2419 2178 15% 4 601191 197588 93%
c i  0.61 103 54 0  79 2421 2179 15% 4 601191 197576 93%
c i  0.61 103 53 0  79 2441 2193 15% 4 601191 197569 93%
c i  0.65 103 48 0  79 2700 2429 16% 3 601191 197557 93%
c i  0.69 103 42 0  79 2979 2689 15% 4 601191 197546 93%
c i  0.69 103 42 0  79 2994 2703 15% 4 601191 197541 93%
c ]  0.69 103 42 0  79 3001 2709 15% 4 601191 197541 93%
c {  0.69 103 63 0  79 3001 2709 20% 3 601191 197541 93%
c i  0.69 103 63 0  79 3002 2709 20% 3 601191 197537 93%
c 
c  seconds   reductions  redundant  irredundant
c          MB    restarts       trail       variables
c           level   conflicts       glue          remaining
c 
c F  0.69 103 62 0  79 3005 2712 20% 3 601191 197537 93%
c i  0.76 103 58 0 109 3313 2978 19% 3 601191 197533 93%
c i  0.77 103 57 0 109 3374 3032 19% 3 601191 197473 93%
c i  0.79 103 55 0 114 3501 3138 19% 3 601191 197469 93%
... skipped 9 lines ...
c i  0.89 103 48 0 158 3949 3521 19% 3 601191 180574 85%
c i  0.90 103 47 0 158 3971 3538 19% 3 601191 180515 85%
c i  0.90 103 47 0 158 3989 3547 19% 3 601191 180511 85%
c i  0.90 103 47 0 163 4008 3564 19% 3 601191 180472 85%
c i  0.90 103 47 0 165 4016 3571 19% 3 601191 180467 85%
c i  0.91 103 46 0 169 4047 3601 19% 3 601191 180463 85%
c i  0.91 103 46 0 170 4049 3602 19% 3 601191 180442 85%
c 
c  seconds   reductions  redundant  irredundant
c          MB    restarts       trail       variables
c           level   conflicts       glue          remaining
c 
c i  0.91 103 46 0 175 4069 3621 19% 3 601191 180271 84%
c i  0.91 103 46 0 175 4070 3621 19% 3 601191 180258 84%
c i  0.91 103 46 0 175 4075 3625 19% 3 601191 180215 84%
c i  0.92 103 45 0 175 4099 3640 19% 3 601191 180211 84%
c i  0.92 103 45 0 175 4100 3640 19% 3 601191 179996 84%
c i  0.92 103 45 0 175 4101 3640 19% 3 601191 179782 84%
c i  0.92 103 45 0 175 4102 3640 19% 3 601191 179776 84%
c i  0.92 103 45 0 175 4104 3641 19% 3 601191 179570 84%
c i  0.92 103 45 0 175 4105 3641 19% 3 601191 175456 82%
c i  0.92 103 45 0 175 4122 3655 19% 3 601191 175455 82%
c i  0.93 103 45 0 175 4162 3690 19% 3 601191 175443 82%
c i  0.93 103 45 0 175 4164 3691 19% 3 601191 175422 82%
c i  0.93 103 45 0 175 4172 3696 19% 3 601191 175396 82%
c i  0.93 103 45 0 175 4184 3703 20% 3 601191 175363 82%
c i  0.94 103 45 0 175 4229 3741 20% 3 601191 175043 82%
c i  0.97 103 44 0 175 4376 3870 20% 3 601191 175031 82%
c i  0.97 103 44 0 175 4378 3871 21% 3 601191 175026 82%
c i  0.99 103 42 0 175 4480 3961 21% 3 601191 175019 82%
c i  0.99 103 42 0 175 4482 3962 21% 3 601191 175014 82%
c i  0.99 103 42 0 175 4492 3967 21% 3 601191 175009 82%
c 
c  seconds   reductions  redundant  irredundant
c          MB    restarts       trail       variables
c           level   conflicts       glue          remaining
c 
c i  0.99 103 42 0 175 4495 3969 21% 3 601191 175004 82%
c i  0.99 103 42 0 175 4500 3971 21% 3 601191 174990 82%
c i  0.99 103 42 0 175 4511 3979 21% 3 601191 174959 82%
c i  1.02 103 41 0 180 4609 4069 21% 3 601191 168853 79%
c i  1.02 103 41 0 180 4610 4069 21% 3 601191 168558 79%
c i  1.02 103 41 0 180 4611 4069 21% 3 601191 168557 79%
c i  1.02 103 41 0 180 4617 4072 21% 3 601191 168424 79%
c i  1.02 103 41 0 180 4619 4073 21% 3 601191 165604 78%
c i  1.04 103 41 0 180 4654 4099 21% 3 601191 164745 77%
c }  1.05 103 40 0 180 4694 4130 22% 3 601191 158723 74%
c 0  1.05 103 40 0 180 4694 4130 22% 3 601191 158723 74%
c 
c --- [ result ] -------------------------------------------------------------
c 
s UNSATISFIABLE
c 
c --- [ run-time profiling ] -------------------------------------------------
c 
c process time taken by individual solving procedures
c (percentage relative to process time for solving)
c 
c         0.95   99.99% search
c         0.56   58.38% unstable
c         0.33   35.06% stable
c         0.09    9.87% parse
c         0.06    6.53% lucky
c         0.00    0.00% simplify
c   =================================
c         0.95   90.98% solve
c 
c last line shows process time for solving
c (percentage relative to total process time)
c 
c --- [ statistics ] ---------------------------------------------------------
c 
c chronological:              2151        45.82 %  of conflicts
c conflicts:                  4694      4928.39    per second
c decisions:                 15382     16150.10    per second
c fixed:                     54634        25.60 %  of all variables
c learned:                    4442        94.63 %  per conflict
c learned_lits:              59554       100.00 %  learned literals
c minimized:                     0         0.00 %  learned literals
c shrunken:                   9042        15.18 %  learned literals
c minishrunken:               8379        14.07 %  learned literals
c otfs:                        110         2.34 %  of conflict
c propagations:           13061593        13.71 M  per second
c rephased:                      2      2347.00    interval
c restarts:                    180        26.08    interval
c stabilizing:                   1        42.63 %  of conflicts
c subsumed:                    227         0.04 %  of all clauses
c strengthened:                110         0.02 %  of all clauses
c 
c seconds are measured in process time for solving
c 
c --- [ resources ] ----------------------------------------------------------
c 
c total process time since initialization:         1.05    seconds
c total real time since initialization:            1.06    seconds
c maximum resident set size of process:          101.54    MB
c 
c --- [ shutting down ] ------------------------------------------------------
c 
c exit 20
